% seed = 6549211

mint = 68;
% maxt = 240;

nActs = 42;
dur = [0,1,10,1,9,5,1,9,7,1,1,8,8,5,6,5,6,4,10,2,9,5,8,9,4,3,9,8,5,10,10,7,7,8,10,3,9,2,8,2,5,0];

nSkills = 4;
sreq = [| 0,0,0,0,
	| 0,3,1,7,
	| 0,4,2,7,
	| 4,0,2,5,
	| 6,3,0,3,
	| 3,1,7,0,
	| 6,3,0,4,
	| 2,0,4,3,
	| 0,7,4,3,
	| 6,4,0,3,
	| 0,3,1,2,
	| 2,0,4,6,
	| 0,3,5,6,
	| 0,5,4,3,
	| 6,0,2,7,
	| 0,3,3,6,
	| 6,4,3,0,
	| 0,3,2,4,
	| 3,3,0,1,
	| 0,6,2,5,
	| 4,3,0,6,
	| 0,6,4,7,
	| 7,2,4,0,
	| 0,2,2,6,
	| 5,0,5,7,
	| 6,4,0,3,
	| 0,5,4,2,
	| 5,0,5,6,
	| 0,5,4,6,
	| 2,4,3,0,
	| 3,5,5,0,
	| 6,2,0,5,
	| 4,0,3,7,
	| 0,5,1,5,
	| 5,0,2,3,
	| 3,3,0,6,
	| 4,0,6,2,
	| 3,0,4,2,
	| 2,2,0,4,
	| 0,4,6,4,
	| 5,0,2,3,
	| 0,0,0,0, |];

nResources = 30;
mastery = [| false,false,false,true,
	| true,false,false,false,
	| true,false,true,false,
	| false,true,true,false,
	| false,true,false,false,
	| false,false,true,false,
	| false,false,true,false,
	| true,true,true,false,
	| false,true,false,false,
	| false,true,true,false,
	| false,false,false,true,
	| true,true,true,false,
	| true,false,true,true,
	| true,true,true,false,
	| false,true,false,true,
	| false,true,true,true,
	| false,false,false,true,
	| true,true,true,false,
	| true,true,true,false,
	| true,false,true,true,
	| true,false,true,false,
	| false,false,true,true,
	| false,true,false,true,
	| true,false,true,true,
	| false,true,true,true,
	| true,true,false,false,
	| true,false,false,false,
	| false,true,true,false,
	| true,false,true,true,
	| true,false,false,false, |];

nPrecs = 85;
pred = [1,1,1,2,2,2,3,3,3,4,4,4,5,5,6,6,6,7,7,7,8,8,8,9,9,10,10,10,11,11,12,12,13,13,13,14,14,14,15,15,15,16,16,16,17,17,17,18,18,18,19,19,19,20,20,20,21,22,22,22,23,24,25,26,26,26,27,28,28,29,30,30,31,32,33,34,35,35,36,36,37,38,39,40,41];
succ = [2,3,4,26,5,7,10,28,29,26,11,6,18,8,9,19,8,12,14,22,21,12,13,29,22,17,31,32,18,12,27,15,33,23,16,27,21,15,28,36,24,41,38,40,34,27,24,25,19,22,20,21,23,35,29,32,28,33,23,24,37,38,34,35,38,31,36,33,30,31,37,32,34,41,39,40,41,36,37,40,39,39,42,42,42];

nUnrels = 395;
unpred = [2,2,2,2,2,2,2,3,3,3,3,3,3,3,3,3,3,3,3,3,3,3,3,3,3,3,3,3,4,4,4,4,4,5,5,5,5,5,5,5,5,6,6,6,6,6,6,6,6,7,7,7,7,7,7,7,7,7,7,7,7,7,7,7,7,8,8,8,8,8,8,8,8,8,8,8,8,8,8,8,9,9,9,9,9,9,9,9,9,9,9,9,9,9,9,9,9,9,9,9,9,10,10,10,10,10,10,10,10,10,10,10,10,10,10,10,10,10,10,10,11,11,11,11,11,12,12,12,12,12,12,12,12,12,12,12,12,12,12,12,12,13,13,13,13,13,13,13,13,13,13,13,13,13,13,13,13,13,13,13,13,14,14,14,14,14,14,14,14,14,14,14,14,14,15,15,15,15,15,15,15,15,15,15,15,15,15,15,15,16,16,16,16,16,16,16,16,16,16,16,16,16,16,16,16,16,16,16,16,16,17,17,17,17,17,17,17,17,17,17,17,17,17,17,17,17,18,18,19,19,19,19,19,19,20,20,20,20,20,20,20,20,20,20,20,21,21,21,21,21,21,21,21,21,21,21,21,21,22,22,22,22,22,22,22,22,22,22,22,22,22,23,23,23,23,23,23,23,23,23,23,23,23,23,23,23,23,24,24,24,24,24,24,24,24,24,24,24,24,24,24,24,25,25,25,25,25,25,25,25,25,25,25,25,25,25,26,26,26,26,26,26,27,27,27,27,27,27,27,27,27,27,28,28,28,28,28,28,28,29,29,29,29,29,29,29,29,29,30,30,30,30,30,30,30,31,31,31,31,31,31,31,31,32,32,32,32,32,32,32,32,33,33,33,33,33,33,33,34,34,34,34,34,34,35,36,36,37,37,37,38,38,39,39,40];
unsucc = [3,4,6,9,10,11,17,4,5,6,7,8,9,11,12,13,14,15,16,18,19,20,21,22,23,25,26,35,5,7,10,14,17,6,7,9,10,11,14,17,26,7,10,11,14,17,18,25,26,8,9,10,11,13,16,17,18,19,20,25,26,29,31,34,35,9,10,11,14,17,18,19,20,22,25,26,29,31,34,35,10,11,12,13,14,15,16,17,18,19,20,21,25,26,27,28,30,32,35,36,41,11,12,13,14,15,16,18,19,20,21,22,23,25,26,28,29,30,33,35,13,14,16,17,26,13,14,16,17,18,19,20,21,22,23,25,26,29,31,34,35,14,15,17,18,19,20,21,22,24,25,26,27,28,29,30,31,32,34,35,36,16,17,18,19,20,22,23,25,26,29,31,34,35,16,17,18,19,20,21,22,23,25,26,27,29,31,34,35,17,18,19,20,21,22,23,24,25,26,27,28,29,30,31,32,33,34,35,36,37,18,19,20,21,22,23,25,26,28,29,30,31,32,33,35,41,26,27,22,24,25,26,27,38,21,22,23,24,25,26,27,28,30,33,38,22,23,24,25,26,27,29,31,34,35,36,38,40,25,26,27,28,29,30,31,32,34,35,36,40,41,24,25,26,27,28,29,30,31,32,33,34,35,36,38,40,41,25,26,27,28,29,30,31,32,33,34,35,36,37,40,41,26,27,28,29,30,31,32,33,35,36,37,38,39,41,27,28,29,30,32,33,28,29,30,31,32,33,34,35,38,41,29,31,34,35,36,38,40,30,32,33,35,36,37,38,39,41,31,33,34,35,36,38,40,32,33,35,36,37,38,39,41,33,34,35,36,37,38,39,40,34,35,36,37,38,40,41,35,36,37,38,39,41,38,38,41,38,40,41,40,41,40,41,41];

USEFUL_RES = [{},
	{1,3,4,5,6,7,8,9,10,11,12,13,14,15,16,17,18,19,20,21,22,23,24,25,26,28,29},
	{1,3,4,5,6,7,8,9,10,11,12,13,14,15,16,17,18,19,20,21,22,23,24,25,26,28,29},
	{1,2,3,4,6,7,8,10,11,12,13,14,15,16,17,18,19,20,21,22,23,24,25,26,27,28,29,30},
	{1,2,3,4,5,8,9,10,11,12,13,14,15,16,17,18,19,20,21,22,23,24,25,26,27,28,29,30},
	{2,3,4,5,6,7,8,9,10,12,13,14,15,16,18,19,20,21,22,23,24,25,26,27,28,29,30},
	{1,2,3,4,5,8,9,10,11,12,13,14,15,16,17,18,19,20,21,22,23,24,25,26,27,28,29,30},
	{1,2,3,4,6,7,8,10,11,12,13,14,15,16,17,18,19,20,21,22,23,24,25,26,27,28,29,30},
	{1,3,4,5,6,7,8,9,10,11,12,13,14,15,16,17,18,19,20,21,22,23,24,25,26,28,29},
	{1,2,3,4,5,8,9,10,11,12,13,14,15,16,17,18,19,20,21,22,23,24,25,26,27,28,29,30},
	{1,3,4,5,6,7,8,9,10,11,12,13,14,15,16,17,18,19,20,21,22,23,24,25,26,28,29},
	{1,2,3,4,6,7,8,10,11,12,13,14,15,16,17,18,19,20,21,22,23,24,25,26,27,28,29,30},
	{1,3,4,5,6,7,8,9,10,11,12,13,14,15,16,17,18,19,20,21,22,23,24,25,26,28,29},
	{1,3,4,5,6,7,8,9,10,11,12,13,14,15,16,17,18,19,20,21,22,23,24,25,26,28,29},
	{1,2,3,4,6,7,8,10,11,12,13,14,15,16,17,18,19,20,21,22,23,24,25,26,27,28,29,30},
	{1,3,4,5,6,7,8,9,10,11,12,13,14,15,16,17,18,19,20,21,22,23,24,25,26,28,29},
	{2,3,4,5,6,7,8,9,10,12,13,14,15,16,18,19,20,21,22,23,24,25,26,27,28,29,30},
	{1,3,4,5,6,7,8,9,10,11,12,13,14,15,16,17,18,19,20,21,22,23,24,25,26,28,29},
	{1,2,3,4,5,8,9,10,11,12,13,14,15,16,17,18,19,20,21,22,23,24,25,26,27,28,29,30},
	{1,3,4,5,6,7,8,9,10,11,12,13,14,15,16,17,18,19,20,21,22,23,24,25,26,28,29},
	{1,2,3,4,5,8,9,10,11,12,13,14,15,16,17,18,19,20,21,22,23,24,25,26,27,28,29,30},
	{1,3,4,5,6,7,8,9,10,11,12,13,14,15,16,17,18,19,20,21,22,23,24,25,26,28,29},
	{2,3,4,5,6,7,8,9,10,12,13,14,15,16,18,19,20,21,22,23,24,25,26,27,28,29,30},
	{1,3,4,5,6,7,8,9,10,11,12,13,14,15,16,17,18,19,20,21,22,23,24,25,26,28,29},
	{1,2,3,4,6,7,8,10,11,12,13,14,15,16,17,18,19,20,21,22,23,24,25,26,27,28,29,30},
	{1,2,3,4,5,8,9,10,11,12,13,14,15,16,17,18,19,20,21,22,23,24,25,26,27,28,29,30},
	{1,3,4,5,6,7,8,9,10,11,12,13,14,15,16,17,18,19,20,21,22,23,24,25,26,28,29},
	{1,2,3,4,6,7,8,10,11,12,13,14,15,16,17,18,19,20,21,22,23,24,25,26,27,28,29,30},
	{1,3,4,5,6,7,8,9,10,11,12,13,14,15,16,17,18,19,20,21,22,23,24,25,26,28,29},
	{2,3,4,5,6,7,8,9,10,12,13,14,15,16,18,19,20,21,22,23,24,25,26,27,28,29,30},
	{2,3,4,5,6,7,8,9,10,12,13,14,15,16,18,19,20,21,22,23,24,25,26,27,28,29,30},
	{1,2,3,4,5,8,9,10,11,12,13,14,15,16,17,18,19,20,21,22,23,24,25,26,27,28,29,30},
	{1,2,3,4,6,7,8,10,11,12,13,14,15,16,17,18,19,20,21,22,23,24,25,26,27,28,29,30},
	{1,3,4,5,6,7,8,9,10,11,12,13,14,15,16,17,18,19,20,21,22,23,24,25,26,28,29},
	{1,2,3,4,6,7,8,10,11,12,13,14,15,16,17,18,19,20,21,22,23,24,25,26,27,28,29,30},
	{1,2,3,4,5,8,9,10,11,12,13,14,15,16,17,18,19,20,21,22,23,24,25,26,27,28,29,30},
	{1,2,3,4,6,7,8,10,11,12,13,14,15,16,17,18,19,20,21,22,23,24,25,26,27,28,29,30},
	{1,2,3,4,6,7,8,10,11,12,13,14,15,16,17,18,19,20,21,22,23,24,25,26,27,28,29,30},
	{1,2,3,4,5,8,9,10,11,12,13,14,15,16,17,18,19,20,21,22,23,24,25,26,27,28,29,30},
	{1,3,4,5,6,7,8,9,10,11,12,13,14,15,16,17,18,19,20,21,22,23,24,25,26,28,29},
	{1,2,3,4,6,7,8,10,11,12,13,14,15,16,17,18,19,20,21,22,23,24,25,26,27,28,29,30},
	{}];

POTENTIAL_ACT = [{2,3,4,5,7,8,9,10,11,12,13,14,15,16,18,19,20,21,22,24,25,26,27,28,29,32,33,34,35,36,37,38,39,40,41},
	{4,5,6,7,8,10,12,15,17,19,21,23,25,26,28,30,31,32,33,35,36,37,38,39,41},
	{2,3,4,5,6,7,8,9,10,11,12,13,14,15,16,17,18,19,20,21,22,23,24,25,26,27,28,29,30,31,32,33,34,35,36,37,38,39,40,41},
	{2,3,4,5,6,7,8,9,10,11,12,13,14,15,16,17,18,19,20,21,22,23,24,25,26,27,28,29,30,31,32,33,34,35,36,37,38,39,40,41},
	{2,3,5,6,7,9,10,11,13,14,16,17,18,19,20,21,22,23,24,26,27,29,30,31,32,34,36,39,40},
	{2,3,4,6,8,9,11,12,13,14,15,16,17,18,20,22,23,24,25,27,28,29,30,31,33,34,35,37,38,40,41},
	{2,3,4,6,8,9,11,12,13,14,15,16,17,18,20,22,23,24,25,27,28,29,30,31,33,34,35,37,38,40,41},
	{2,3,4,5,6,7,8,9,10,11,12,13,14,15,16,17,18,19,20,21,22,23,24,25,26,27,28,29,30,31,32,33,34,35,36,37,38,39,40,41},
	{2,3,5,6,7,9,10,11,13,14,16,17,18,19,20,21,22,23,24,26,27,29,30,31,32,34,36,39,40},
	{2,3,4,5,6,7,8,9,10,11,12,13,14,15,16,17,18,19,20,21,22,23,24,25,26,27,28,29,30,31,32,33,34,35,36,37,38,39,40,41},
	{2,3,4,5,7,8,9,10,11,12,13,14,15,16,18,19,20,21,22,24,25,26,27,28,29,32,33,34,35,36,37,38,39,40,41},
	{2,3,4,5,6,7,8,9,10,11,12,13,14,15,16,17,18,19,20,21,22,23,24,25,26,27,28,29,30,31,32,33,34,35,36,37,38,39,40,41},
	{2,3,4,5,6,7,8,9,10,11,12,13,14,15,16,17,18,19,20,21,22,23,24,25,26,27,28,29,30,31,32,33,34,35,36,37,38,39,40,41},
	{2,3,4,5,6,7,8,9,10,11,12,13,14,15,16,17,18,19,20,21,22,23,24,25,26,27,28,29,30,31,32,33,34,35,36,37,38,39,40,41},
	{2,3,4,5,6,7,8,9,10,11,12,13,14,15,16,17,18,19,20,21,22,23,24,25,26,27,28,29,30,31,32,33,34,35,36,37,38,39,40,41},
	{2,3,4,5,6,7,8,9,10,11,12,13,14,15,16,17,18,19,20,21,22,23,24,25,26,27,28,29,30,31,32,33,34,35,36,37,38,39,40,41},
	{2,3,4,5,7,8,9,10,11,12,13,14,15,16,18,19,20,21,22,24,25,26,27,28,29,32,33,34,35,36,37,38,39,40,41},
	{2,3,4,5,6,7,8,9,10,11,12,13,14,15,16,17,18,19,20,21,22,23,24,25,26,27,28,29,30,31,32,33,34,35,36,37,38,39,40,41},
	{2,3,4,5,6,7,8,9,10,11,12,13,14,15,16,17,18,19,20,21,22,23,24,25,26,27,28,29,30,31,32,33,34,35,36,37,38,39,40,41},
	{2,3,4,5,6,7,8,9,10,11,12,13,14,15,16,17,18,19,20,21,22,23,24,25,26,27,28,29,30,31,32,33,34,35,36,37,38,39,40,41},
	{2,3,4,5,6,7,8,9,10,11,12,13,14,15,16,17,18,19,20,21,22,23,24,25,26,27,28,29,30,31,32,33,34,35,36,37,38,39,40,41},
	{2,3,4,5,6,7,8,9,10,11,12,13,14,15,16,17,18,19,20,21,22,23,24,25,26,27,28,29,30,31,32,33,34,35,36,37,38,39,40,41},
	{2,3,4,5,6,7,8,9,10,11,12,13,14,15,16,17,18,19,20,21,22,23,24,25,26,27,28,29,30,31,32,33,34,35,36,37,38,39,40,41},
	{2,3,4,5,6,7,8,9,10,11,12,13,14,15,16,17,18,19,20,21,22,23,24,25,26,27,28,29,30,31,32,33,34,35,36,37,38,39,40,41},
	{2,3,4,5,6,7,8,9,10,11,12,13,14,15,16,17,18,19,20,21,22,23,24,25,26,27,28,29,30,31,32,33,34,35,36,37,38,39,40,41},
	{2,3,4,5,6,7,8,9,10,11,12,13,14,15,16,17,18,19,20,21,22,23,24,25,26,27,28,29,30,31,32,33,34,35,36,37,38,39,40,41},
	{4,5,6,7,8,10,12,15,17,19,21,23,25,26,28,30,31,32,33,35,36,37,38,39,41},
	{2,3,4,5,6,7,8,9,10,11,12,13,14,15,16,17,18,19,20,21,22,23,24,25,26,27,28,29,30,31,32,33,34,35,36,37,38,39,40,41},
	{2,3,4,5,6,7,8,9,10,11,12,13,14,15,16,17,18,19,20,21,22,23,24,25,26,27,28,29,30,31,32,33,34,35,36,37,38,39,40,41},
	{4,5,6,7,8,10,12,15,17,19,21,23,25,26,28,30,31,32,33,35,36,37,38,39,41}];
